
List of user-set options:

                                    Name   Value                used
                           compl_inf_tol = 1                     yes
                         constr_viol_tol = 1                     yes
                            dual_inf_tol = 1000                  yes
                           linear_solver = ma97                  yes
                              ma86_small = 1e-30                  no
                                  ma86_u = 0.0001                 no
                              ma97_order = best                  yes
                              ma97_small = 1e-30                 yes
                            ma97_switch1 = at_start              yes
                            ma97_switch2 = od_hd_reuse           yes
                                  ma97_u = 1e-06                 yes
                               ma97_umax = 0.5                   yes
                                max_iter = 2000                  yes
                    max_refinement_steps = 20                    yes
                    min_refinement_steps = 5                     yes
                                 mu_init = 1e-06                 yes
           mu_superlinear_decrease_power = 1.25                  yes
                   nlp_scaling_min_value = 1e-08                 yes
                        option_file_name = Preset_Case:_49_NCP.opt  yes
                             output_file = ./tmp/Preset_Case:_49_NCP.output  yes
                      print_user_options = yes                   yes
        required_infeasibility_reduction = 1                      no
                                     tol = 1e-08                 yes
                   warm_start_bound_frac = 1e-20                 yes
                   warm_start_bound_push = 1e-20                 yes
                   warm_start_init_point = yes                   yes
              warm_start_mult_bound_push = 1e-20                 yes
                warm_start_mult_init_max = 1e+40                 yes
             warm_start_slack_bound_frac = 1e-20                 yes
             warm_start_slack_bound_push = 1e-20                 yes

******************************************************************************
This program contains Ipopt, a library for large-scale nonlinear optimization.
 Ipopt is released as open source code under the Eclipse Public License (EPL).
         For more information visit http://projects.coin-or.org/Ipopt
******************************************************************************

This is Ipopt version 3.12.10, running with linear solver ma97.

Number of nonzeros in equality constraint Jacobian...:   117140
Number of nonzeros in inequality constraint Jacobian.:      213
Number of nonzeros in Lagrangian Hessian.............:    47462

Total number of variables............................:    29971
                     variables with only lower bounds:    11312
                variables with lower and upper bounds:    15132
                     variables with only upper bounds:        0
Total number of equality constraints.................:    29864
Total number of inequality constraints...............:       25
        inequality constraints with only lower bounds:        4
   inequality constraints with lower and upper bounds:        0
        inequality constraints with only upper bounds:       21

iter    objective    inf_pr   inf_du lg(mu)  ||d||  lg(rg) alpha_du alpha_pr  ls
   0 -4.5677666e-02 1.54e-01 4.90e+01  -6.0 0.00e+00    -  0.00e+00 0.00e+00   0
In iteration 0, 1 Slack too small, adjusting variable bound
   1 -4.5677666e-02 1.54e-01 7.53e+02  -6.0 5.89e+05  -2.0 2.11e-08 3.68e-14f  1
   2 -4.5677667e-02 1.54e-01 2.13e+03  -6.0 3.01e+03  -2.5 5.58e-05 1.79e-07f  1
   3 -4.5677593e-02 1.54e-01 1.90e+03  -6.0 2.85e+03  -2.1 1.93e-05 2.17e-05f  1
   4 -4.5673835e-02 1.54e-01 2.13e+03  -6.0 2.84e+03  -2.5 2.37e-05 1.49e-04f  1
   5 -4.5671875e-02 1.54e-01 8.82e+03  -6.0 2.84e+03  -2.1 2.56e-06 8.07e-05f  1
   6 -4.5579621e-02 1.54e-01 9.65e+04  -6.0 2.83e+03  -2.6 7.74e-05 3.17e-03f  1
   7 -4.5573721e-02 1.54e-01 9.86e+04  -6.0 2.49e+03  -2.2 2.24e-05 5.39e-05h  1
   8 -4.5572813e-02 1.54e-01 9.76e+04  -6.0 2.35e+03  -2.6 5.81e-05 2.85e-06f  2
   9 -4.5567729e-02 1.54e-01 9.87e+04  -6.0 2.47e+03  -2.2 6.91e-06 2.72e-05h  1
iter    objective    inf_pr   inf_du lg(mu)  ||d||  lg(rg) alpha_du alpha_pr  ls
  10 -4.5560256e-02 1.54e-01 9.88e+04  -6.0 2.30e+03  -2.7 1.65e-05 2.07e-05f  5
  11 -4.5525727e-02 1.54e-01 1.05e+05  -6.0 2.45e+03  -2.3 4.58e-05 1.77e-04h  1
  12 -4.5515561e-02 1.54e-01 1.04e+05  -6.0 2.22e+03  -2.7 1.45e-04 2.28e-05f  3
In iteration 12, 1 Slack too small, adjusting variable bound
  13 -4.5385432e-02 1.53e-01 1.27e+05  -6.0 2.41e+03  -2.3 8.95e-05 6.45e-04h  1
  14r-4.5385432e-02 1.53e-01 1.00e+03  -0.8 0.00e+00  -2.8 0.00e+00 3.75e-07R 12
  15r-4.5391267e-02 1.53e-01 1.53e+03  -0.8 1.16e+05    -  3.71e-08 1.86e-08f  1
  16r-4.5406391e-02 1.54e-01 1.53e+03  -0.8 5.70e+04    -  4.31e-08 1.10e-07f  1
  17r-4.5414947e-02 1.53e-01 1.54e+03  -0.8 4.30e+04    -  2.03e-07 1.21e-07f  1
  18r-4.5443858e-02 1.53e-01 1.52e+03  -0.8 3.68e+04    -  3.10e-07 8.87e-07f  1
  19r-4.5443858e-02 1.53e-01 9.99e+02  -0.8 0.00e+00    -  0.00e+00 1.01e-07R  2
iter    objective    inf_pr   inf_du lg(mu)  ||d||  lg(rg) alpha_du alpha_pr  ls
  20r-4.5444166e-02 1.53e-01 9.99e+02  -0.8 4.65e+03    -  6.73e-06 6.25e-08f  1
  21 -4.5444140e-02 1.53e-01 1.08e+06  -6.0 1.74e+02    -  1.81e-02 2.44e-06h  3
  22 -4.5442072e-02 1.53e-01 2.29e+07  -6.0 2.45e+03    -  4.13e-06 8.75e-05h  1
  23 -4.5439216e-02 1.53e-01 2.29e+07  -6.0 2.62e+03    -  5.00e-03 1.19e-04h  1
  24 -4.5430737e-02 1.53e-01 2.29e+07  -6.0 2.69e+03    -  2.13e-04 9.00e-04h  5
  25 -4.5420578e-02 1.53e-01 2.29e+07  -6.0 2.64e+03    -  3.55e-03 7.90e-04h  5
  26 -4.5405413e-02 1.53e-01 2.28e+07  -6.0 2.58e+03    -  2.77e-03 1.02e-03h  5
  27 -4.5387779e-02 1.53e-01 2.28e+07  -6.0 2.52e+03    -  8.06e-03 1.05e-03h  5
  28 -4.5345662e-02 1.52e-01 2.27e+07  -6.0 2.46e+03    -  6.21e-03 2.48e-03h  4
  29 -4.5298549e-02 1.52e-01 2.27e+07  -6.0 2.34e+03    -  1.29e-02 2.58e-03h  4
iter    objective    inf_pr   inf_du lg(mu)  ||d||  lg(rg) alpha_du alpha_pr  ls
  30 -4.5242142e-02 1.52e-01 2.26e+07  -6.0 2.25e+03    -  1.79e-02 3.20e-03h  4
  31 -4.5207897e-02 1.51e-01 2.26e+07  -6.0 2.17e+03    -  2.45e-02 2.04e-03h  5
  32 -4.5165907e-02 1.51e-01 2.25e+07  -6.0 2.13e+03    -  2.81e-02 2.65e-03h  5
  33 -4.5114418e-02 1.50e-01 2.24e+07  -6.0 2.07e+03    -  3.16e-02 3.32e-03h  5
  34 -4.4100086e-02 3.67e-01 2.10e+07  -6.0 1.99e+03    -  3.75e-02 6.51e-02w  1
  35 -4.4099931e-02 3.67e-01 2.10e+07  -6.0 9.00e+02    -  8.72e-02 8.80e-06w  1
  36 -4.2714528e-02 8.95e-01 1.93e+07  -6.0 8.89e+02    -  1.18e-01 8.06e-02w  1
  37 -4.5082720e-02 1.50e-01 2.24e+07  -6.0 5.14e+02    -  3.75e-02 2.04e-03h  5
  38 -4.5063304e-02 1.50e-01 2.24e+07  -6.0 1.94e+03    -  4.41e-02 1.25e-03h  7
  39 -4.5051677e-02 1.50e-01 2.23e+07  -6.0 1.91e+03    -  5.13e-02 7.51e-04h  8
iter    objective    inf_pr   inf_du lg(mu)  ||d||  lg(rg) alpha_du alpha_pr  ls
  40 -4.5039898e-02 1.50e-01 2.23e+07  -6.0 1.88e+03    -  4.94e-02 7.76e-04h  8
  41 -4.5028117e-02 1.50e-01 2.23e+07  -6.0 1.86e+03    -  5.02e-02 7.97e-04h  8
  42 -4.5016259e-02 1.49e-01 2.23e+07  -6.0 1.84e+03    -  3.90e-02 8.36e-04h  8
  43 -4.5004278e-02 1.49e-01 2.23e+07  -6.0 1.82e+03    -  7.51e-02 8.81e-04h  8
  44 -4.4992114e-02 1.49e-01 2.22e+07  -6.0 1.82e+03    -  3.39e-02 9.97e-04h  8
  45 -4.4980041e-02 1.49e-01 2.22e+07  -6.0 1.81e+03    -  8.49e-02 1.05e-03h  8
  46 -4.4974830e-02 1.49e-01 2.22e+07  -6.0 1.82e+03    -  3.44e-02 5.36e-04h  9
  47 -4.3727390e-02 5.48e+00 1.91e+07  -6.0 1.82e+03    -  1.13e-01 1.39e-01w  1
  48 -4.1423955e-02 4.56e+00 1.60e+07  -6.0 3.85e+02    -  1.10e-05 1.62e-01w  1
  49 -4.1256451e-02 4.45e+00 1.56e+07  -6.0 4.76e+02    -  4.56e-01 2.46e-02w  1
iter    objective    inf_pr   inf_du lg(mu)  ||d||  lg(rg) alpha_du alpha_pr  ls
  50 -4.4969958e-02 1.49e-01 2.22e+07  -6.0 6.24e+02    -  1.13e-01 5.42e-04h  8
  51 -4.4966316e-02 1.49e-01 2.22e+07  -6.0 1.87e+03    -  3.02e-02 5.50e-04h  9
  52 -4.4962939e-02 1.49e-01 2.22e+07  -6.0 1.88e+03    -  1.19e-01 5.57e-04h  9
  53 -4.4958869e-02 1.49e-01 2.22e+07  -6.0 1.98e+03    -  2.69e-02 1.13e-03h  8
  54 -4.4956957e-02 1.48e-01 2.21e+07  -6.0 1.98e+03    -  1.18e-01 5.82e-04h  9
  55 -4.4956545e-02 1.48e-01 2.21e+07  -6.0 2.14e+03    -  2.48e-02 5.95e-04h  9
  56 -4.4929018e-02 3.92e+00 2.01e+07  -6.0 2.17e+03    -  1.15e-01 9.29e-02h  1
  57 -4.4922126e-02 3.92e+00 2.01e+07  -6.0 1.78e+03    -  2.07e-01 4.55e-04h 10
  58 -4.4920238e-02 3.92e+00 2.01e+07  -6.0 2.32e+03    -  2.51e-01 1.33e-04h 11
  59 -4.4919385e-02 3.92e+00 2.01e+07  -6.0 3.12e+03    -  1.97e-01 6.03e-05h 13
iter    objective    inf_pr   inf_du lg(mu)  ||d||  lg(rg) alpha_du alpha_pr  ls
  60 -4.4919104e-02 3.92e+00 2.01e+07  -6.0 3.82e+03    -  1.53e-01 2.02e-05h 15
  61 -4.2254247e-02 1.49e+01 1.61e+07  -6.0 4.36e+03    -  1.97e-01 1.97e-01s 21
  62 -4.1234747e-02 1.39e+01 1.42e+07  -6.0 1.53e+03    -  1.21e-01 1.21e-01s 21
  63 -4.0347410e-02 1.22e+01 1.19e+07  -6.0 1.02e+03    -  1.62e-01 1.62e-01s 21
  64 -4.0345944e-02 1.14e+01 1.10e+07  -6.0 1.33e+03    -  7.43e-02 7.43e-02s 21
  65 -4.0775511e-02 7.83e+00 6.69e+06  -6.0 5.11e+02    -  3.91e-01 3.91e-01s 21
  66 -4.0773528e-02 7.83e+00 6.69e+06  -6.0 1.26e+02  -3.3 1.93e-04 1.93e-04s 21
  67 -4.0738479e-02 7.80e+00 6.66e+06  -6.0 2.03e+02  -3.7 4.29e-03 4.29e-03s 21
  68 -4.0747419e-02 7.71e+00 6.59e+06  -6.0 2.48e+02  -4.2 1.12e-02 1.12e-02s 21
  69 -4.1036651e-02 7.63e+00 6.52e+06  -6.0 8.71e+02  -4.7 1.10e-02 1.10e-02s 21
iter    objective    inf_pr   inf_du lg(mu)  ||d||  lg(rg) alpha_du alpha_pr  ls
  70 -4.1592072e-02 6.04e+00 5.16e+06  -6.0 2.86e+02  -4.3 2.09e-01 2.09e-01s 21
  71r-4.1592072e-02 6.04e+00 1.00e+03   0.6 0.00e+00    -  0.00e+00 0.00e+00R  1
  72r-4.1639037e-02 6.03e+00 2.37e+03   0.6 1.42e+04    -  6.10e-07 5.58e-07f  1
  73r-4.1520060e-02 6.02e+00 2.31e+03   0.6 1.19e+04    -  1.14e-06 2.92e-06f  1
  74 -4.1519633e-02 6.01e+00 7.98e+02  -6.0 2.56e+01    -  6.68e-04 1.68e-04h  1
  75 -4.1518453e-02 6.01e+00 2.53e+03  -6.0 3.26e+01    -  1.70e-04 4.47e-04h  1
  76 -4.1516053e-02 6.01e+00 9.00e+03  -6.0 2.88e+01    -  1.90e-01 8.42e-04h  1
  77 -4.0865671e-02 4.56e+00 2.13e+05  -6.0 3.52e+01    -  1.46e-03 2.41e-01h  1
  78 -4.0796040e-02 4.37e+00 2.05e+05  -6.0 3.47e+01    -  2.17e-01 4.10e-02h  1
  79 -4.0301281e-02 3.38e+00 1.99e+05  -6.0 8.13e+01    -  4.56e-01 2.27e-01h  1
iter    objective    inf_pr   inf_du lg(mu)  ||d||  lg(rg) alpha_du alpha_pr  ls
  80 -4.0109095e-02 2.84e+00 1.54e+05  -6.0 7.04e+01    -  5.60e-01 1.59e-01h  1
  81 -4.1132769e-02 2.26e+00 1.32e+05  -6.0 1.36e+02    -  4.34e-01 2.06e-01h  3
  82 -4.2210991e-02 1.79e+00 1.08e+05  -6.0 1.05e+02    -  3.50e-01 2.05e-01h  3
  83 -4.2098794e-02 1.78e+00 8.91e+04  -6.0 6.89e+02    -  3.55e-07 6.50e-03h  1
  84 -4.2453688e-02 1.65e+00 8.05e+04  -6.0 8.91e+01    -  4.89e-02 7.26e-02h  3
  85 -4.4322692e-02 1.18e+00 5.80e+04  -6.0 1.36e+02    -  2.68e-01 2.84e-01h  1
  86 -4.4938012e-02 1.03e+00 4.83e+04  -6.0 1.03e+02    -  1.62e-01 1.34e-01h  3
  87 -4.5371893e-02 9.72e-01 4.56e+04  -6.0 1.34e+02    -  5.27e-02 5.24e-02h  1
  88 -4.6869880e-02 1.93e-01 5.67e+04  -6.0 1.04e+01  -3.8 3.93e-01 9.77e-01h  1
  89 -4.6805279e-02 9.21e-02 1.14e+05  -6.0 4.41e+01    -  3.56e-01 5.32e-01h  1
iter    objective    inf_pr   inf_du lg(mu)  ||d||  lg(rg) alpha_du alpha_pr  ls
  90 -4.6917227e-02 3.51e-03 4.02e+06  -6.0 3.08e+00    -  4.45e-02 1.00e+00h  1
  91 -4.7067948e-02 1.09e-03 1.30e+05  -6.0 5.28e+00    -  3.88e-01 1.00e+00h  1
  92 -4.7335530e-02 5.57e-03 3.74e+04  -6.0 8.37e+00    -  7.13e-01 1.00e+00h  1
  93 -4.8452823e-02 1.01e-01 1.08e+04  -6.0 3.36e+01    -  7.18e-01 1.00e+00h  1
  94 -4.8525476e-02 6.68e-03 6.64e+03  -6.0 9.40e-01  -4.3 2.45e-01 1.00e+00h  1
  95 -4.9866737e-02 1.12e-01 6.86e+03  -6.0 5.14e+02    -  3.73e-02 1.65e-02h  2
  96 -5.0880385e-02 1.53e-01 6.79e+03  -6.0 3.05e+02    -  2.99e-02 1.98e-02h  2
  97 -5.2611496e-02 2.40e-01 6.62e+03  -6.0 3.08e+02    -  3.89e-02 3.16e-02h  1
  98 -6.3229111e-02 1.50e+00 4.98e+03  -6.0 2.80e+02    -  8.07e-02 1.92e-01h  1
  99 -6.5209589e-02 1.56e+00 4.95e+03  -6.0 1.21e+02    -  4.13e-02 8.86e-02h  1
iter    objective    inf_pr   inf_du lg(mu)  ||d||  lg(rg) alpha_du alpha_pr  ls
 100 -6.8688543e-02 5.94e+00 4.13e+03  -6.0 2.31e+02    -  1.96e-01 2.36e-01h  1
 101 -7.5186643e-02 1.38e+01 3.13e+03  -6.0 2.37e+02    -  2.75e-01 3.26e-01h  1
 102 -7.6889930e-02 1.17e+01 1.93e+03  -6.0 2.47e+02    -  3.18e-01 1.47e-01h  1
 103 -7.7438147e-02 1.12e+01 9.28e+02  -6.0 2.80e+02    -  3.81e-01 4.57e-02h  1
 104 -8.1299764e-02 8.23e+00 4.12e+02  -6.0 3.47e+02    -  4.34e-01 2.69e-01h  1
 105 -8.3068600e-02 7.17e+00 8.41e+01  -6.0 4.41e+02    -  4.75e-01 1.31e-01h  1
 106 -8.6214440e-02 5.89e+00 1.18e+02  -6.0 8.80e+02    -  5.19e-01 1.85e-01h  1
 107 -8.9520496e-02 2.54e+01 8.95e+01  -6.0 7.48e+03    -  3.06e-02 9.82e-02h  1
 108 -8.9611810e-02 2.47e+01 7.82e+01  -6.0 3.09e+01  -4.8 5.64e-04 2.94e-02h  1
 109 -9.0672376e-02 2.42e+01 7.12e+01  -6.0 1.04e+04    -  8.64e-06 2.42e-02f  1
iter    objective    inf_pr   inf_du lg(mu)  ||d||  lg(rg) alpha_du alpha_pr  ls
 110 -9.1728781e-02 2.36e+01 7.51e+01  -6.0 5.95e+03    -  5.08e-02 2.24e-02h  1
 111 -9.4257346e-02 2.21e+01 6.78e+01  -6.0 5.56e+03    -  4.16e-02 5.66e-02h  1
 112 -9.7456471e-02 1.97e+01 5.27e+01  -6.0 2.23e+03    -  5.69e-02 1.11e-01h  1
 113 -1.0192812e-01 1.68e+01 5.22e+01  -6.0 1.15e+03    -  5.71e-02 1.78e-01h  1
 114 -1.0197733e-01 1.59e+01 4.97e+01  -6.0 2.40e+01  -5.3 4.42e-02 5.70e-02h  1
 115 -1.0201973e-01 1.49e+01 4.49e+01  -6.0 1.60e+01  -5.7 1.22e-01 6.36e-02h  1
 116 -1.0218120e-01 1.20e+01 4.32e+01  -6.0 1.92e+01  -6.2 3.58e-02 2.26e-01h  1
 117 -1.0247418e-01 1.10e+01 3.20e+01  -6.0 4.68e+01  -6.7 2.69e-01 1.21e-01h  1
 118 -1.0281952e-01 1.05e+01 8.19e+01  -6.0 1.26e+02  -7.2 5.54e-01 5.74e-02h  1
 119 -1.0331077e-01 9.82e+00 1.02e+02  -6.0 1.35e+02  -7.7 4.89e-01 7.69e-02h  1
iter    objective    inf_pr   inf_du lg(mu)  ||d||  lg(rg) alpha_du alpha_pr  ls
 120 -1.0371271e-01 8.74e+00 1.16e+02  -6.0 1.04e+02  -7.2 9.80e-01 1.36e-01h  1
 121 -1.0519166e-01 4.88e+00 1.13e+02  -6.0 1.33e+02  -7.7 4.10e-01 3.56e-01h  1
 122 -1.0596965e-01 3.98e+00 1.22e+02  -6.0 5.06e+02  -8.2 5.77e-04 1.59e-01h  1
 123 -1.0662713e-01 3.51e+00 7.95e+01  -6.0 6.67e+02  -8.7 3.39e-01 1.10e-01h  1
 124 -1.0836078e-01 2.63e+00 8.26e+01  -6.0 9.67e+02  -9.1 2.07e-01 2.28e-01h  1
Error in an AMPL evaluation. Run with "halt_on_ampl_error yes" to see details.
Warning: Cutting back alpha due to evaluation error
 125 -1.0927034e-01 1.70e+00 1.23e+02  -6.0 5.01e+02  -7.8 4.22e-02 3.59e-01h  2
 126 -1.1080963e-01 2.35e+00 2.32e+02  -6.0 6.60e+02  -8.3 1.24e-02 4.93e-01h  1
 127 -1.1082300e-01 2.51e+00 2.25e+02  -6.0 3.37e+03  -8.8 5.66e-02 3.36e-02h  1
 128 -1.1299736e-01 2.28e+00 1.29e+02  -6.0 7.08e+02  -9.2 4.27e-01 4.36e-01h  1
 129 -1.1368851e-01 1.87e+00 1.40e+02  -6.0 4.88e+02  -8.8 4.80e-01 2.33e-01h  1
iter    objective    inf_pr   inf_du lg(mu)  ||d||  lg(rg) alpha_du alpha_pr  ls
 130 -1.1627856e-01 4.16e+00 3.33e+02  -6.0 7.11e+02  -9.3 1.00e+00 6.26e-01h  1
 131 -1.1673876e-01 8.90e+00 1.15e+02  -6.0 1.50e+03  -8.9 1.31e-01 4.01e-01h  1
 132 -1.1734704e-01 6.40e+00 5.21e+02  -6.0 6.15e+02  -9.3 3.90e-01 3.56e-01h  1
 133 -1.1748240e-01 4.54e+00 7.27e+02  -6.0 2.15e+02  -8.9 3.58e-01 2.92e-01h  1
 134 -1.1821602e-01 3.77e+00 2.52e+05  -6.0 9.73e+02  -9.4 9.68e-03 4.06e-01h  1
 135 -1.1865683e-01 2.39e+00 1.25e+05  -6.0 3.16e+02  -9.0 4.10e-01 5.03e-01h  1
 136 -1.1965620e-01 2.40e+01 7.82e+04  -6.0 2.77e+03  -9.4 4.23e-01 3.76e-01h  1
 137 -1.2041646e-01 1.38e+01 4.49e+04  -6.0 1.92e+03  -9.9 4.12e-01 4.27e-01h  1
 138 -1.2094465e-01 1.33e+01 3.51e+04  -6.0 1.65e+03  -9.5 1.55e-01 2.17e-01h  1
 139 -1.2151439e-01 1.36e+01 3.06e+04  -6.0 3.91e+03 -10.0 1.07e-01 1.29e-01h  1
iter    objective    inf_pr   inf_du lg(mu)  ||d||  lg(rg) alpha_du alpha_pr  ls
 140 -1.2176418e-01 1.21e+01 2.68e+04  -6.0 9.31e+02  -9.5 9.18e-02 1.26e-01h  1
 141 -1.2305931e-01 1.19e+01 1.76e+04  -6.0 2.49e+03 -10.0 1.75e-01 3.42e-01h  1
 142 -1.2367232e-01 9.20e+00 1.23e+04  -6.0 9.91e+02  -9.6 8.72e-02 3.04e-01h  1
 143 -1.2455349e-01 3.41e+00 1.56e+04  -6.0 3.24e+02  -9.2 2.01e-01 8.48e-01h  1
 144 -1.2474507e-01 3.35e+00 1.06e+04  -6.0 3.11e+03  -9.7 8.89e-02 4.05e-02h  1
 145 -1.2530577e-01 2.91e+00 2.00e+04  -6.0 4.27e+02  -9.2 2.71e-01 4.25e-01h  1
 146 -1.2545962e-01 2.84e+00 8.65e+05  -6.0 1.02e+04  -9.7 1.25e-03 2.54e-02h  1
 147 -1.2650189e-01 3.62e+00 4.17e+04  -6.0 7.18e+02  -9.3 9.29e-02 9.47e-01h  1
 148 -1.2657576e-01 3.48e+00 4.01e+04  -6.0 2.52e+02  -8.9 1.20e-01 3.89e-02h  1
 149 -1.2738530e-01 3.56e+00 2.75e+04  -6.0 9.79e+02  -9.3 3.35e-01 3.15e-01h  1
iter    objective    inf_pr   inf_du lg(mu)  ||d||  lg(rg) alpha_du alpha_pr  ls
 150 -1.2878002e-01 1.97e+01 2.71e+04  -6.0 6.93e+04  -9.8 5.80e-03 1.28e-02h  1
 151 -1.2943172e-01 2.09e+01 2.65e+04  -6.0 1.28e+04 -10.3 4.77e-03 2.05e-02h  1
 152 -1.2936688e-01 1.93e+01 2.41e+04  -6.0 2.45e+03 -10.8 1.32e-01 9.14e-02h  1
 153 -1.3002427e-01 2.24e+01 2.38e+04  -6.0 3.25e+04 -10.3 1.42e-02 1.18e-02h  1
 154 -1.3103261e-01 2.51e+01 2.06e+04  -6.0 3.61e+03 -10.8 8.01e-02 1.38e-01h  1
 155 -1.3117056e-01 2.43e+01 1.99e+04  -6.0 3.60e+04 -11.3 3.23e-02 3.17e-02h  1
 156 -1.3125063e-01 2.38e+01 1.95e+04  -6.0 6.67e+03    -  1.80e-01 2.02e-02h  1
 157 -1.3168757e-01 5.90e+01 1.77e+04  -6.0 2.34e+04    -  2.48e-02 8.99e-02h  1
 158 -1.3267477e-01 4.92e+01 1.36e+04  -6.0 6.72e+03    -  2.12e-02 2.33e-01h  1
 159 -1.3285077e-01 4.66e+01 1.29e+04  -6.0 4.16e+03    -  3.95e-01 5.37e-02h  1
iter    objective    inf_pr   inf_du lg(mu)  ||d||  lg(rg) alpha_du alpha_pr  ls
 160 -1.3409237e-01 3.01e+01 7.59e+03  -6.0 2.56e+03    -  2.82e-01 4.12e-01h  1
 161 -1.3459242e-01 2.33e+01 1.23e+04  -6.0 1.62e+03  -9.1 7.24e-02 2.26e-01h  1
 162 -1.3465329e-01 2.27e+01 1.00e+06  -6.0 1.60e+03  -9.5 9.92e-04 2.63e-02h  1
 163 -1.3432536e-01 2.21e+01 9.80e+05  -6.0 1.73e+04 -10.0 4.72e-03 2.41e-02h  1
 164 -1.3491565e-01 1.06e+01 4.66e+05  -6.0 4.79e+02  -9.6 1.12e-01 5.22e-01h  1
 165 -1.3493334e-01 1.03e+01 4.54e+05  -6.0 9.42e+03    -  2.01e-01 2.58e-02h  1
 166 -1.3525309e-01 1.62e+01 2.83e+05  -6.0 2.06e+03    -  4.14e-01 3.76e-01h  1
 167 -1.3527587e-01 1.55e+01 2.71e+05  -6.0 1.46e+03  -7.4 3.56e-04 4.27e-02h  1
 168 -1.3545417e-01 1.00e+01 1.75e+05  -6.0 1.65e+02  -7.8 6.18e-01 3.52e-01h  1
 169 -1.3551793e-01 9.62e+00 1.68e+05  -6.0 2.46e+02  -8.3 2.08e-01 3.97e-02h  1
iter    objective    inf_pr   inf_du lg(mu)  ||d||  lg(rg) alpha_du alpha_pr  ls
 170 -1.3574566e-01 1.57e+01 1.11e+05  -6.0 2.19e+03    -  3.16e-01 3.43e-01h  1
 171 -1.3605714e-01 9.04e+00 6.26e+04  -6.0 3.57e+02    -  6.17e-01 4.35e-01h  1
 172 -1.3645330e-01 1.43e+00 1.03e+04  -6.0 1.78e+02  -8.8 1.00e+00 8.42e-01h  1
 173 -1.3674041e-01 6.32e-01 3.38e+03  -6.0 1.82e+02  -9.3 1.00e+00 6.76e-01h  1
 174 -1.3699088e-01 1.14e+00 1.17e+03  -6.0 2.47e+02  -9.7 5.02e-01 6.56e-01h  1
 175 -1.3719200e-01 9.94e+00 2.71e+03  -6.0 1.59e+03 -10.2 2.66e-01 4.69e-01h  1
 176 -1.3740648e-01 5.62e+00 2.31e+03  -6.0 2.30e+02    -  4.09e-01 4.38e-01h  1
 177 -1.3742982e-01 5.37e+00 2.99e+04  -6.0 1.35e+03  -9.8 6.33e-01 4.57e-02h  1
 178 -1.3758613e-01 3.75e+00 4.34e+04  -6.0 4.80e+02    -  9.83e-01 3.14e-01h  1
 179 -1.3816062e-01 5.63e+00 3.44e+07  -6.0 2.20e+03    -  7.34e-04 2.87e-01h  1
iter    objective    inf_pr   inf_du lg(mu)  ||d||  lg(rg) alpha_du alpha_pr  ls
 180 -1.3778761e-01 4.55e+00 7.67e+03  -6.0 6.92e+02    -  5.09e-02 1.00e+00h  1
 181 -1.3801304e-01 1.19e+00 1.22e+03  -6.0 2.96e+02    -  3.35e-01 8.37e-01h  1
 182 -1.3790064e-01 9.48e-01 6.87e+04  -6.0 3.07e+02    -  1.95e-02 7.69e-01h  1
 183 -1.3798977e-01 9.91e-01 6.83e+04  -6.0 9.41e+03    -  1.82e-02 5.99e-03f  2
 184 -1.3796757e-01 6.34e-01 4.26e+04  -6.0 1.75e+02    -  3.33e-01 3.77e-01h  1
 185 -1.3790498e-01 8.90e-01 2.46e+02  -6.0 1.50e+02    -  9.05e-01 1.00e+00h  1
 186 -1.3795517e-01 9.70e-02 2.67e+00  -6.0 3.79e+01    -  8.48e-01 1.00e+00h  1
 187 -1.3806533e-01 2.76e-01 5.62e+00  -6.0 1.14e+02    -  8.19e-01 1.00e+00h  1
 188 -1.3809339e-01 4.93e-01 1.49e+01  -6.0 8.06e+02    -  2.12e-01 1.24e-01h  1
 189 -1.3807670e-01 5.25e-02 2.35e-01  -6.0 4.24e+01    -  1.00e+00 1.00e+00h  1
iter    objective    inf_pr   inf_du lg(mu)  ||d||  lg(rg) alpha_du alpha_pr  ls
 190 -1.3807007e-01 6.54e-01 3.11e+00  -6.0 1.49e+02  -8.5 1.00e+00 1.00e+00h  1
 191 -1.3806020e-01 8.32e-01 1.05e+01  -6.0 9.62e+02    -  3.39e-01 9.43e-02h  1
 192 -1.3801301e-01 6.65e-01 3.96e+00  -6.0 1.52e+02    -  1.00e+00 1.00e+00h  1
 193 -1.3800804e-01 1.29e+00 1.01e+01  -6.0 3.25e+03    -  5.32e-02 4.67e-02h  1
 194 -1.3801753e-01 1.08e+00 1.20e+02  -6.0 2.26e+02    -  1.00e+00 6.93e-01h  1
 195 -1.3838377e-01 5.47e-01 2.75e+02  -6.0 1.36e+02    -  5.36e-01 7.88e-01h  1
 196 -1.3832904e-01 3.46e-01 1.73e+02  -6.0 3.57e+01  -7.1 3.90e-01 3.70e-01h  1
 197 -1.3815088e-01 8.66e-02 1.27e+00  -6.0 3.37e+01  -7.6 1.00e+00 1.00e+00h  1
 198 -1.3810560e-01 7.75e-02 6.21e-01  -6.0 5.30e+01  -8.1 9.16e-01 1.00e+00h  1
 199 -1.3812810e-01 7.17e-01 5.28e+00  -6.0 1.61e+02  -8.6 1.00e+00 1.00e+00h  1
iter    objective    inf_pr   inf_du lg(mu)  ||d||  lg(rg) alpha_du alpha_pr  ls
 200 -1.3814979e-01 1.15e+00 1.18e+01  -6.0 2.28e+04    -  8.02e-03 5.55e-03h  1
 201 -1.3811240e-01 2.42e-01 3.10e+01  -6.0 9.58e+01    -  1.00e+00 1.00e+00h  1
 202 -1.3815844e-01 1.11e+00 5.07e+02  -6.0 5.31e+02  -9.0 2.71e-01 3.55e-01h  1
 203 -1.3810787e-01 1.12e-01 1.06e+04  -6.0 6.40e+01    -  4.86e-01 1.00e+00h  1
 204 -1.3809273e-01 8.19e-01 5.54e+03  -6.0 3.54e+02    -  8.57e-01 4.78e-01h  1
 205 -1.3799817e-01 8.44e-01 3.17e+01  -6.0 1.67e+02    -  1.00e+00 1.00e+00h  1
 206 -1.3792598e-01 6.07e-01 1.33e+01  -6.0 1.48e+02    -  3.39e-01 8.53e-01h  1
 207 -1.3798971e-01 6.91e-01 4.25e+01  -6.0 3.43e+02    -  1.00e+00 2.67e-01h  2
 208 -1.3791337e-01 3.12e-01 1.48e+01  -6.0 6.01e+01    -  8.23e-01 1.00e+00h  1
 209 -1.3795996e-01 1.06e-01 1.40e+01  -6.0 5.80e+01    -  4.37e-01 1.00e+00h  1
iter    objective    inf_pr   inf_du lg(mu)  ||d||  lg(rg) alpha_du alpha_pr  ls
 210 -1.3797173e-01 1.38e-02 2.86e-02  -6.0 1.37e+01    -  1.00e+00 1.00e+00h  1
 211 -1.3803247e-01 1.95e-01 9.83e-01  -6.0 8.06e+01    -  1.00e+00 1.00e+00h  1
 212 -1.3801229e-01 2.35e-02 1.18e-01  -6.0 2.80e+01    -  1.00e+00 1.00e+00h  1
 213 -1.3801197e-01 3.08e-05 1.46e-04  -6.0 1.03e+00    -  1.00e+00 1.00e+00h  1
 214 -1.3801197e-01 2.45e-09 1.22e-08  -6.0 8.90e-03    -  1.00e+00 1.00e+00h  1
 215 -1.3855111e-01 6.51e+00 1.17e+01  -7.5 3.73e+03    -  1.71e-01 1.73e-01f  1
 216 -1.3874204e-01 7.36e+00 2.56e+01  -7.5 4.02e+03    -  3.42e-02 7.08e-02h  1
 217 -1.3912764e-01 1.01e+01 2.12e+01  -7.5 2.55e+03    -  3.45e-01 2.32e-01h  1
 218 -1.3929655e-01 1.07e+01 1.86e+01  -7.5 2.43e+03    -  1.61e-01 1.81e-01h  1
 219 -1.3930201e-01 1.06e+01 7.43e+01  -7.5 4.55e+02  -9.5 5.01e-01 8.78e-03h  1
iter    objective    inf_pr   inf_du lg(mu)  ||d||  lg(rg) alpha_du alpha_pr  ls
 220 -1.3979342e-01 3.08e+01 4.79e+01  -7.5 2.54e+03    -  7.70e-03 6.03e-01h  1
 221 -1.3982841e-01 2.52e+01 3.74e+01  -7.5 1.14e+03    -  2.15e-01 1.83e-01h  1
 222 -1.3991598e-01 1.28e+01 3.01e+01  -7.5 1.10e+03    -  2.64e-01 4.98e-01h  1
 223 -1.3991992e-01 1.25e+01 2.97e+01  -7.5 7.51e+02 -10.0 9.49e-03 2.27e-02h  1
 224 -1.4001294e-01 5.39e+00 2.28e+01  -7.5 8.23e+02    -  3.24e-01 5.99e-01h  1
 225 -1.4004707e-01 4.06e+00 2.32e+01  -7.5 1.24e+03    -  5.52e-01 2.49e-01h  1
 226 -1.4010822e-01 1.82e+00 3.90e+01  -7.5 3.22e+02    -  2.10e-01 6.11e-01h  1
 227 -1.4016639e-01 4.61e+01 1.14e+02  -7.5 2.98e+03    -  2.20e-01 5.24e-01h  1
 228 -1.4026844e-01 4.80e+01 6.09e+02  -7.5 1.56e+03    -  1.72e-03 1.00e+00h  1
 229 -1.4028283e-01 4.14e+01 7.04e+02  -7.5 1.50e+02    -  5.42e-02 1.38e-01h  1
iter    objective    inf_pr   inf_du lg(mu)  ||d||  lg(rg) alpha_du alpha_pr  ls
 230 -1.4029963e-01 3.49e+01 1.86e+02  -7.5 2.03e+02    -  4.68e-01 1.59e-01h  1
 231 -1.4032573e-01 2.64e+01 4.56e+02  -7.5 1.59e+02    -  4.07e-01 2.46e-01h  1
 232 -1.4035369e-01 1.98e+01 6.85e+02  -7.5 9.34e+02    -  3.93e-01 2.50e-01h  1
 233 -1.4037666e-01 1.60e+01 2.93e+03  -7.5 3.88e+02 -10.5 1.00e+00 1.94e-01h  1
 234 -1.4039365e-01 1.37e+01 2.67e+03  -7.5 6.78e+02 -10.9 2.57e-01 1.39e-01h  1
 235 -1.4044822e-01 1.21e+01 7.25e+02  -7.5 2.34e+03    -  4.23e-02 4.17e-01h  1
 236 -1.4045057e-01 1.31e+01 6.11e+02  -7.5 2.81e+04    -  1.56e-03 1.45e-02h  1
 237 -1.4045163e-01 1.30e+01 3.22e+03  -7.5 6.02e+03    -  2.41e-01 5.72e-03h  1
 238 -1.4045310e-01 1.29e+01 4.81e+02  -7.5 1.19e+04    -  6.25e-03 1.24e-02h  1
 239 -1.4048642e-01 3.50e+01 1.63e+03  -7.5 1.66e+03    -  2.14e-01 1.00e+00f  1
iter    objective    inf_pr   inf_du lg(mu)  ||d||  lg(rg) alpha_du alpha_pr  ls
 240 -1.4052983e-01 7.96e+01 2.11e+02  -7.5 2.58e+03    -  4.16e-01 9.24e-01h  1
 241 -1.4052841e-01 7.73e+01 1.93e+02  -7.5 2.48e+03    -  9.36e-02 3.01e-02h  1
 242 -1.4052480e-01 5.80e+01 3.76e+02  -7.5 8.16e+02    -  3.46e-02 2.56e-01h  1
 243 -1.4052476e-01 5.79e+01 3.60e+02  -7.5 7.47e+02    -  2.74e-01 2.86e-03h  1
 244 -1.4051785e-01 9.60e-01 1.78e+02  -7.5 3.14e+02    -  7.05e-04 1.00e+00h  1
 245 -1.4051448e-01 1.35e-01 1.52e+02  -7.5 8.60e+01    -  1.21e-01 1.00e+00h  1
 246 -1.4051558e-01 6.56e-02 1.20e-01  -7.5 6.75e+01    -  1.00e+00 1.00e+00h  1
 247 -1.4055555e-01 6.50e+01 6.30e+01  -7.5 1.36e+04    -  2.39e-02 1.57e-01h  1
 248 -1.4054177e-01 5.58e+01 1.96e+02  -7.5 4.38e+03    -  1.17e-01 2.15e-01H  1
 249 -1.4052733e-01 3.64e+01 2.33e+02  -7.5 1.55e+03    -  4.17e-02 5.00e-01h  2
iter    objective    inf_pr   inf_du lg(mu)  ||d||  lg(rg) alpha_du alpha_pr  ls
 250 -1.4053404e-01 4.25e+00 4.96e+01  -7.5 4.84e+02    -  8.00e-01 1.00e+00h  1
 251 -1.4054558e-01 6.79e+00 3.22e+01  -7.5 6.69e+02    -  1.55e-01 1.00e+00h  1
 252 -1.4057658e-01 5.61e+01 7.36e+01  -7.5 1.91e+03 -11.4 1.00e+00 1.00e+00h  1
 253 -1.4058398e-01 5.28e+01 8.21e+01  -7.5 3.61e+03    -  1.04e-01 1.54e-01h  1
 254 -1.4058492e-01 1.20e+00 2.87e+01  -7.5 2.11e+02    -  1.00e+00 1.00e+00h  1
 255 -1.4060905e-01 5.52e+01 1.86e+02  -7.5 5.49e+03    -  4.35e-02 3.24e-01h  1
 256 -1.4061717e-01 4.13e+01 1.40e+03  -7.5 1.59e+03    -  1.20e-02 4.10e-01h  1
 257 -1.4059346e-01 2.41e+01 9.59e+02  -7.5 2.30e+03    -  1.26e-03 1.00e+00H  1
 258 -1.4059558e-01 4.21e+00 2.62e+02  -7.5 3.11e+02    -  9.14e-01 7.88e-01h  1
 259 -1.4060574e-01 1.18e+01 8.00e+01  -7.5 8.14e+02    -  7.46e-01 1.00e+00h  1
iter    objective    inf_pr   inf_du lg(mu)  ||d||  lg(rg) alpha_du alpha_pr  ls
 260 -1.4061839e-01 2.79e+01 1.18e+02  -7.5 5.89e+03 -11.9 5.74e-03 1.66e-01h  1
 261 -1.4061183e-01 1.85e+01 6.16e+01  -7.5 9.81e+02    -  5.66e-02 5.00e-01h  2
 262 -1.4061303e-01 2.25e-01 2.97e+00  -7.5 1.00e+02 -10.6 9.81e-01 1.00e+00h  1
 263 -1.4061979e-01 5.30e+00 2.45e+01  -7.5 6.70e+03    -  2.22e-01 7.65e-02h  1
 264 -1.4061822e-01 2.73e-01 2.39e+00  -7.5 1.22e+02    -  1.00e+00 1.00e+00h  1
 265 -1.4061993e-01 3.33e-01 2.57e+00  -7.5 1.29e+02    -  1.00e+00 1.00e+00h  1
 266 -1.4062003e-01 8.87e-04 7.95e-03  -7.5 6.32e+00    -  1.00e+00 1.00e+00h  1
 267 -1.4062001e-01 4.58e-05 2.99e-04  -7.5 1.51e+00    -  1.00e+00 1.00e+00h  1
 268 -1.4062001e-01 2.59e-09 2.76e-08  -7.5 1.13e-02    -  1.00e+00 1.00e+00h  1
 269 -1.4062327e-01 9.23e-02 2.40e+00  -9.0 2.59e+02    -  2.88e-01 3.04e-01h  1
iter    objective    inf_pr   inf_du lg(mu)  ||d||  lg(rg) alpha_du alpha_pr  ls
 270 -1.4063018e-01 2.10e+01 7.95e+01  -9.0 1.17e+05    -  2.17e-02 8.78e-03h  1
 271 -1.4063789e-01 2.77e+01 1.19e+02  -9.0 3.62e+03    -  1.86e-01 2.32e-01h  1
 272 -1.4064254e-01 2.74e+01 1.26e+02  -9.0 4.34e+03    -  2.91e-01 1.62e-01h  1
 273 -1.4064966e-01 4.42e+01 1.33e+02  -9.0 3.43e+03    -  3.20e-01 3.66e-01h  1
 274 -1.4065356e-01 4.07e+01 2.54e+01  -9.0 1.55e+03    -  1.00e-02 8.19e-01h  1
 275 -1.4065068e-01 1.55e-01 7.70e+00  -9.0 1.02e+02    -  4.01e-02 1.00e+00h  1
 276 -1.4065131e-01 8.47e-02 7.37e-01  -9.0 6.42e+01    -  1.00e+00 1.00e+00h  1
 277 -1.4065129e-01 2.12e-02 8.98e-02  -9.0 3.22e+01    -  1.00e+00 1.00e+00h  1
 278 -1.4065129e-01 6.76e-08 1.75e-05  -9.0 3.78e-02    -  1.00e+00 1.00e+00h  1
 279 -1.4065129e-01 3.05e-10 2.60e-12  -9.0 2.81e-05    -  1.00e+00 1.00e+00h  1

Number of Iterations....: 279

                                   (scaled)                 (unscaled)
Objective...............:  -1.4065129089328751e-01   -1.4065129089328751e-01
Dual infeasibility......:   2.5958192741853698e-12    2.5958192741853698e-12
Constraint violation....:   3.0548375493707342e-10    3.0548375493707342e-10
Complementarity.........:   9.0909098743841807e-10    9.0909098743841807e-10
Overall NLP error.......:   9.0909098743841807e-10    9.0909098743841807e-10


Number of objective function evaluations             = 592
Number of objective gradient evaluations             = 276
Number of equality constraint evaluations            = 593
Number of inequality constraint evaluations          = 593
Number of equality constraint Jacobian evaluations   = 283
Number of inequality constraint Jacobian evaluations = 283
Number of Lagrangian Hessian evaluations             = 279
Total CPU secs in IPOPT (w/o function evaluations)   =    108.225
Total CPU secs in NLP function evaluations           =      5.339

EXIT: Optimal Solution Found.
